Problem:    TSP
Rows:       198
Columns:    195 (182 integer, 182 binary)
Non-zeros:  1027
Status:     INTEGER OPTIMAL
Objective:  total = 17205.38 (MINimum)

   No.   Row name        Activity     Lower bound   Upper bound
------ ------------    ------------- ------------- -------------
     1 total                 17205.4                             
     2 salida[0]                   1             1             = 
     3 salida[1]                   1             1             = 
     4 salida[2]                   1             1             = 
     5 salida[3]                   1             1             = 
     6 salida[4]                   1             1             = 
     7 salida[5]                   1             1             = 
     8 salida[6]                   1             1             = 
     9 salida[7]                   1             1             = 
    10 salida[8]                   1             1             = 
    11 salida[9]                   1             1             = 
    12 salida[10]                  1             1             = 
    13 salida[11]                  1             1             = 
    14 salida[12]                  1             1             = 
    15 salida[13]                  1             1             = 
    16 llegada[0]                  1             1             = 
    17 llegada[1]                  1             1             = 
    18 llegada[2]                  1             1             = 
    19 llegada[3]                  1             1             = 
    20 llegada[4]                  1             1             = 
    21 llegada[5]                  1             1             = 
    22 llegada[6]                  1             1             = 
    23 llegada[7]                  1             1             = 
    24 llegada[8]                  1             1             = 
    25 llegada[9]                  1             1             = 
    26 llegada[10]                 1             1             = 
    27 llegada[11]                 1             1             = 
    28 llegada[12]                 1             1             = 
    29 llegada[13]                 1             1             = 
    30 evitarSubTours[1,2]
                                   1                          12 
    31 evitarSubTours[1,3]
                                  12                          12 
    32 evitarSubTours[1,4]
                                   2                          12 
    33 evitarSubTours[1,5]
                                  11                          12 
    34 evitarSubTours[1,6]
                                   3                          12 
    35 evitarSubTours[1,7]
                                  10                          12 
    36 evitarSubTours[1,8]
                                   9                          12 
    37 evitarSubTours[1,9]
                                   8                          12 
    38 evitarSubTours[1,10]
                                   4                          12 
    39 evitarSubTours[1,11]
                                   5                          12 
    40 evitarSubTours[1,12]
                                   6                          12 
    41 evitarSubTours[1,13]
                                   7                          12 
    42 evitarSubTours[2,1]
                                  12                          12 
    43 evitarSubTours[2,3]
                                  11                          12 
    44 evitarSubTours[2,4]
                                   1                          12 
    45 evitarSubTours[2,5]
                                  10                          12 
    46 evitarSubTours[2,6]
                                   2                          12 
    47 evitarSubTours[2,7]
                                   9                          12 
    48 evitarSubTours[2,8]
                                   8                          12 
    49 evitarSubTours[2,9]
                                   7                          12 
    50 evitarSubTours[2,10]
                                   3                          12 
    51 evitarSubTours[2,11]
                                   4                          12 
    52 evitarSubTours[2,12]
                                   5                          12 
    53 evitarSubTours[2,13]
                                   6                          12 
    54 evitarSubTours[3,1]
                                 -12                          12 
    55 evitarSubTours[3,2]
                                 -11                          12 
    56 evitarSubTours[3,4]
                                 -10                          12 
    57 evitarSubTours[3,5]
                                  12                          12 
    58 evitarSubTours[3,6]
                                  -9                          12 
    59 evitarSubTours[3,7]
                                  -2                          12 
    60 evitarSubTours[3,8]
                                  -3                          12 
    61 evitarSubTours[3,9]
                                  -4                          12 
    62 evitarSubTours[3,10]
                                  -8                          12 
    63 evitarSubTours[3,11]
                                  -7                          12 
    64 evitarSubTours[3,12]
                                  -6                          12 
    65 evitarSubTours[3,13]
                                  -5                          12 
    66 evitarSubTours[4,1]
                                  -2                          12 
    67 evitarSubTours[4,2]
                                  12                          12 
    68 evitarSubTours[4,3]
                                  10                          12 
    69 evitarSubTours[4,5]
                                   9                          12 
    70 evitarSubTours[4,6]
                                   1                          12 
    71 evitarSubTours[4,7]
                                   8                          12 
    72 evitarSubTours[4,8]
                                   7                          12 
    73 evitarSubTours[4,9]
                                   6                          12 
    74 evitarSubTours[4,10]
                                   2                          12 
    75 evitarSubTours[4,11]
                                   3                          12 
    76 evitarSubTours[4,12]
                                   4                          12 
    77 evitarSubTours[4,13]
                                   5                          12 
    78 evitarSubTours[5,1]
                                 -11                          12 
    79 evitarSubTours[5,2]
                                 -10                          12 
    80 evitarSubTours[5,3]
                                   1                          12 
    81 evitarSubTours[5,4]
                                  -9                          12 
    82 evitarSubTours[5,6]
                                  -8                          12 
    83 evitarSubTours[5,7]
                                  12                          12 
    84 evitarSubTours[5,8]
                                  -2                          12 
    85 evitarSubTours[5,9]
                                  -3                          12 
    86 evitarSubTours[5,10]
                                  -7                          12 
    87 evitarSubTours[5,11]
                                  -6                          12 
    88 evitarSubTours[5,12]
                                  -5                          12 
    89 evitarSubTours[5,13]
                                  -4                          12 
    90 evitarSubTours[6,1]
                                  -3                          12 
    91 evitarSubTours[6,2]
                                  -2                          12 
    92 evitarSubTours[6,3]
                                   9                          12 
    93 evitarSubTours[6,4]
                                  12                          12 
    94 evitarSubTours[6,5]
                                   8                          12 
    95 evitarSubTours[6,7]
                                   7                          12 
    96 evitarSubTours[6,8]
                                   6                          12 
    97 evitarSubTours[6,9]
                                   5                          12 
    98 evitarSubTours[6,10]
                                   1                          12 
    99 evitarSubTours[6,11]
                                   2                          12 
   100 evitarSubTours[6,12]
                                   3                          12 
   101 evitarSubTours[6,13]
                                   4                          12 
   102 evitarSubTours[7,1]
                                 -10                          12 
   103 evitarSubTours[7,2]
                                  -9                          12 
   104 evitarSubTours[7,3]
                                   2                          12 
   105 evitarSubTours[7,4]
                                  -8                          12 
   106 evitarSubTours[7,5]
                                   1                          12 
   107 evitarSubTours[7,6]
                                  -7                          12 
   108 evitarSubTours[7,8]
                                  12                          12 
   109 evitarSubTours[7,9]
                                  -2                          12 
   110 evitarSubTours[7,10]
                                  -6                          12 
   111 evitarSubTours[7,11]
                                  -5                          12 
   112 evitarSubTours[7,12]
                                  -4                          12 
   113 evitarSubTours[7,13]
                                  -3                          12 
   114 evitarSubTours[8,1]
                                  -9                          12 
   115 evitarSubTours[8,2]
                                  -8                          12 
   116 evitarSubTours[8,3]
                                   3                          12 
   117 evitarSubTours[8,4]
                                  -7                          12 
   118 evitarSubTours[8,5]
                                   2                          12 
   119 evitarSubTours[8,6]
                                  -6                          12 
   120 evitarSubTours[8,7]
                                   1                          12 
   121 evitarSubTours[8,9]
                                  12                          12 
   122 evitarSubTours[8,10]
                                  -5                          12 
   123 evitarSubTours[8,11]
                                  -4                          12 
   124 evitarSubTours[8,12]
                                  -3                          12 
   125 evitarSubTours[8,13]
                                  -2                          12 
   126 evitarSubTours[9,1]
                                  -8                          12 
   127 evitarSubTours[9,2]
                                  -7                          12 
   128 evitarSubTours[9,3]
                                   4                          12 
   129 evitarSubTours[9,4]
                                  -6                          12 
   130 evitarSubTours[9,5]
                                   3                          12 
   131 evitarSubTours[9,6]
                                  -5                          12 
   132 evitarSubTours[9,7]
                                   2                          12 
   133 evitarSubTours[9,8]
                                   1                          12 
   134 evitarSubTours[9,10]
                                  -4                          12 
   135 evitarSubTours[9,11]
                                  -3                          12 
   136 evitarSubTours[9,12]
                                  -2                          12 
   137 evitarSubTours[9,13]
                                  12                          12 
   138 evitarSubTours[10,1]
                                  -4                          12 
   139 evitarSubTours[10,2]
                                  -3                          12 
   140 evitarSubTours[10,3]
                                   8                          12 
   141 evitarSubTours[10,4]
                                  -2                          12 
   142 evitarSubTours[10,5]
                                   7                          12 
   143 evitarSubTours[10,6]
                                  12                          12 
   144 evitarSubTours[10,7]
                                   6                          12 
   145 evitarSubTours[10,8]
                                   5                          12 
   146 evitarSubTours[10,9]
                                   4                          12 
   147 evitarSubTours[10,11]
                                   1                          12 
   148 evitarSubTours[10,12]
                                   2                          12 
   149 evitarSubTours[10,13]
                                   3                          12 
   150 evitarSubTours[11,1]
                                  -5                          12 
   151 evitarSubTours[11,2]
                                  -4                          12 
   152 evitarSubTours[11,3]
                                   7                          12 
   153 evitarSubTours[11,4]
                                  -3                          12 
   154 evitarSubTours[11,5]
                                   6                          12 
   155 evitarSubTours[11,6]
                                  -2                          12 
   156 evitarSubTours[11,7]
                                   5                          12 
   157 evitarSubTours[11,8]
                                   4                          12 
   158 evitarSubTours[11,9]
                                   3                          12 
   159 evitarSubTours[11,10]
                                  12                          12 
   160 evitarSubTours[11,12]
                                   1                          12 
   161 evitarSubTours[11,13]
                                   2                          12 
   162 evitarSubTours[12,1]
                                  -6                          12 
   163 evitarSubTours[12,2]
                                  -5                          12 
   164 evitarSubTours[12,3]
                                   6                          12 
   165 evitarSubTours[12,4]
                                  -4                          12 
   166 evitarSubTours[12,5]
                                   5                          12 
   167 evitarSubTours[12,6]
                                  -3                          12 
   168 evitarSubTours[12,7]
                                   4                          12 
   169 evitarSubTours[12,8]
                                   3                          12 
   170 evitarSubTours[12,9]
                                   2                          12 
   171 evitarSubTours[12,10]
                                  -2                          12 
   172 evitarSubTours[12,11]
                                  12                          12 
   173 evitarSubTours[12,13]
                                   1                          12 
   174 evitarSubTours[13,1]
                                  -7                          12 
   175 evitarSubTours[13,2]
                                  -6                          12 
   176 evitarSubTours[13,3]
                                   5                          12 
   177 evitarSubTours[13,4]
                                  -5                          12 
   178 evitarSubTours[13,5]
                                   4                          12 
   179 evitarSubTours[13,6]
                                  -4                          12 
   180 evitarSubTours[13,7]
                                   3                          12 
   181 evitarSubTours[13,8]
                                   2                          12 
   182 evitarSubTours[13,9]
                                   1                          12 
   183 evitarSubTours[13,10]
                                  -3                          12 
   184 evitarSubTours[13,11]
                                  -2                          12 
   185 evitarSubTours[13,12]
                                  12                          12 
   186 rangoOrden[1]
                                  13             1            13 
   187 rangoOrden[2]
                                  12             1            13 
   188 rangoOrden[3]
                                   1             1            13 
   189 rangoOrden[4]
                                  11             1            13 
   190 rangoOrden[5]
                                   2             1            13 
   191 rangoOrden[6]
                                  10             1            13 
   192 rangoOrden[7]
                                   3             1            13 
   193 rangoOrden[8]
                                   4             1            13 
   194 rangoOrden[9]
                                   5             1            13 
   195 rangoOrden[10]
                                   9             1            13 
   196 rangoOrden[11]
                                   8             1            13 
   197 rangoOrden[12]
                                   7             1            13 
   198 rangoOrden[13]
                                   6             1            13 

   No. Column name       Activity     Lower bound   Upper bound
------ ------------    ------------- ------------- -------------
     1 Y[0,1]       *              0             0             1 
     2 Y[0,2]       *              0             0             1 
     3 Y[0,3]       *              1             0             1 
     4 Y[0,4]       *              0             0             1 
     5 Y[0,5]       *              0             0             1 
     6 Y[0,6]       *              0             0             1 
     7 Y[0,7]       *              0             0             1 
     8 Y[0,8]       *              0             0             1 
     9 Y[0,9]       *              0             0             1 
    10 Y[0,10]      *              0             0             1 
    11 Y[0,11]      *              0             0             1 
    12 Y[0,12]      *              0             0             1 
    13 Y[0,13]      *              0             0             1 
    14 Y[1,0]       *              1             0             1 
    15 Y[1,2]       *              0             0             1 
    16 Y[1,3]       *              0             0             1 
    17 Y[1,4]       *              0             0             1 
    18 Y[1,5]       *              0             0             1 
    19 Y[1,6]       *              0             0             1 
    20 Y[1,7]       *              0             0             1 
    21 Y[1,8]       *              0             0             1 
    22 Y[1,9]       *              0             0             1 
    23 Y[1,10]      *              0             0             1 
    24 Y[1,11]      *              0             0             1 
    25 Y[1,12]      *              0             0             1 
    26 Y[1,13]      *              0             0             1 
    27 Y[2,0]       *              0             0             1 
    28 Y[2,1]       *              1             0             1 
    29 Y[2,3]       *              0             0             1 
    30 Y[2,4]       *              0             0             1 
    31 Y[2,5]       *              0             0             1 
    32 Y[2,6]       *              0             0             1 
    33 Y[2,7]       *              0             0             1 
    34 Y[2,8]       *              0             0             1 
    35 Y[2,9]       *              0             0             1 
    36 Y[2,10]      *              0             0             1 
    37 Y[2,11]      *              0             0             1 
    38 Y[2,12]      *              0             0             1 
    39 Y[2,13]      *              0             0             1 
    40 Y[3,0]       *              0             0             1 
    41 Y[3,1]       *              0             0             1 
    42 Y[3,2]       *              0             0             1 
    43 Y[3,4]       *              0             0             1 
    44 Y[3,5]       *              1             0             1 
    45 Y[3,6]       *              0             0             1 
    46 Y[3,7]       *              0             0             1 
    47 Y[3,8]       *              0             0             1 
    48 Y[3,9]       *              0             0             1 
    49 Y[3,10]      *              0             0             1 
    50 Y[3,11]      *              0             0             1 
    51 Y[3,12]      *              0             0             1 
    52 Y[3,13]      *              0             0             1 
    53 Y[4,0]       *              0             0             1 
    54 Y[4,1]       *              0             0             1 
    55 Y[4,2]       *              1             0             1 
    56 Y[4,3]       *              0             0             1 
    57 Y[4,5]       *              0             0             1 
    58 Y[4,6]       *              0             0             1 
    59 Y[4,7]       *              0             0             1 
    60 Y[4,8]       *              0             0             1 
    61 Y[4,9]       *              0             0             1 
    62 Y[4,10]      *              0             0             1 
    63 Y[4,11]      *              0             0             1 
    64 Y[4,12]      *              0             0             1 
    65 Y[4,13]      *              0             0             1 
    66 Y[5,0]       *              0             0             1 
    67 Y[5,1]       *              0             0             1 
    68 Y[5,2]       *              0             0             1 
    69 Y[5,3]       *              0             0             1 
    70 Y[5,4]       *              0             0             1 
    71 Y[5,6]       *              0             0             1 
    72 Y[5,7]       *              1             0             1 
    73 Y[5,8]       *              0             0             1 
    74 Y[5,9]       *              0             0             1 
    75 Y[5,10]      *              0             0             1 
    76 Y[5,11]      *              0             0             1 
    77 Y[5,12]      *              0             0             1 
    78 Y[5,13]      *              0             0             1 
    79 Y[6,0]       *              0             0             1 
    80 Y[6,1]       *              0             0             1 
    81 Y[6,2]       *              0             0             1 
    82 Y[6,3]       *              0             0             1 
    83 Y[6,4]       *              1             0             1 
    84 Y[6,5]       *              0             0             1 
    85 Y[6,7]       *              0             0             1 
    86 Y[6,8]       *              0             0             1 
    87 Y[6,9]       *              0             0             1 
    88 Y[6,10]      *              0             0             1 
    89 Y[6,11]      *              0             0             1 
    90 Y[6,12]      *              0             0             1 
    91 Y[6,13]      *              0             0             1 
    92 Y[7,0]       *              0             0             1 
    93 Y[7,1]       *              0             0             1 
    94 Y[7,2]       *              0             0             1 
    95 Y[7,3]       *              0             0             1 
    96 Y[7,4]       *              0             0             1 
    97 Y[7,5]       *              0             0             1 
    98 Y[7,6]       *              0             0             1 
    99 Y[7,8]       *              1             0             1 
   100 Y[7,9]       *              0             0             1 
   101 Y[7,10]      *              0             0             1 
   102 Y[7,11]      *              0             0             1 
   103 Y[7,12]      *              0             0             1 
   104 Y[7,13]      *              0             0             1 
   105 Y[8,0]       *              0             0             1 
   106 Y[8,1]       *              0             0             1 
   107 Y[8,2]       *              0             0             1 
   108 Y[8,3]       *              0             0             1 
   109 Y[8,4]       *              0             0             1 
   110 Y[8,5]       *              0             0             1 
   111 Y[8,6]       *              0             0             1 
   112 Y[8,7]       *              0             0             1 
   113 Y[8,9]       *              1             0             1 
   114 Y[8,10]      *              0             0             1 
   115 Y[8,11]      *              0             0             1 
   116 Y[8,12]      *              0             0             1 
   117 Y[8,13]      *              0             0             1 
   118 Y[9,0]       *              0             0             1 
   119 Y[9,1]       *              0             0             1 
   120 Y[9,2]       *              0             0             1 
   121 Y[9,3]       *              0             0             1 
   122 Y[9,4]       *              0             0             1 
   123 Y[9,5]       *              0             0             1 
   124 Y[9,6]       *              0             0             1 
   125 Y[9,7]       *              0             0             1 
   126 Y[9,8]       *              0             0             1 
   127 Y[9,10]      *              0             0             1 
   128 Y[9,11]      *              0             0             1 
   129 Y[9,12]      *              0             0             1 
   130 Y[9,13]      *              1             0             1 
   131 Y[10,0]      *              0             0             1 
   132 Y[10,1]      *              0             0             1 
   133 Y[10,2]      *              0             0             1 
   134 Y[10,3]      *              0             0             1 
   135 Y[10,4]      *              0             0             1 
   136 Y[10,5]      *              0             0             1 
   137 Y[10,6]      *              1             0             1 
   138 Y[10,7]      *              0             0             1 
   139 Y[10,8]      *              0             0             1 
   140 Y[10,9]      *              0             0             1 
   141 Y[10,11]     *              0             0             1 
   142 Y[10,12]     *              0             0             1 
   143 Y[10,13]     *              0             0             1 
   144 Y[11,0]      *              0             0             1 
   145 Y[11,1]      *              0             0             1 
   146 Y[11,2]      *              0             0             1 
   147 Y[11,3]      *              0             0             1 
   148 Y[11,4]      *              0             0             1 
   149 Y[11,5]      *              0             0             1 
   150 Y[11,6]      *              0             0             1 
   151 Y[11,7]      *              0             0             1 
   152 Y[11,8]      *              0             0             1 
   153 Y[11,9]      *              0             0             1 
   154 Y[11,10]     *              1             0             1 
   155 Y[11,12]     *              0             0             1 
   156 Y[11,13]     *              0             0             1 
   157 Y[12,0]      *              0             0             1 
   158 Y[12,1]      *              0             0             1 
   159 Y[12,2]      *              0             0             1 
   160 Y[12,3]      *              0             0             1 
   161 Y[12,4]      *              0             0             1 
   162 Y[12,5]      *              0             0             1 
   163 Y[12,6]      *              0             0             1 
   164 Y[12,7]      *              0             0             1 
   165 Y[12,8]      *              0             0             1 
   166 Y[12,9]      *              0             0             1 
   167 Y[12,10]     *              0             0             1 
   168 Y[12,11]     *              1             0             1 
   169 Y[12,13]     *              0             0             1 
   170 Y[13,0]      *              0             0             1 
   171 Y[13,1]      *              0             0             1 
   172 Y[13,2]      *              0             0             1 
   173 Y[13,3]      *              0             0             1 
   174 Y[13,4]      *              0             0             1 
   175 Y[13,5]      *              0             0             1 
   176 Y[13,6]      *              0             0             1 
   177 Y[13,7]      *              0             0             1 
   178 Y[13,8]      *              0             0             1 
   179 Y[13,9]      *              0             0             1 
   180 Y[13,10]     *              0             0             1 
   181 Y[13,11]     *              0             0             1 
   182 Y[13,12]     *              1             0             1 
   183 U[2]                       12                             
   184 U[1]                       13                             
   185 U[3]                        1                             
   186 U[4]                       11                             
   187 U[5]                        2                             
   188 U[6]                       10                             
   189 U[7]                        3                             
   190 U[8]                        4                             
   191 U[9]                        5                             
   192 U[10]                       9                             
   193 U[11]                       8                             
   194 U[12]                       7                             
   195 U[13]                       6                             

Integer feasibility conditions:

KKT.PE: max.abs.err = 3.55e-15 on row 172
        max.rel.err = 8.67e-17 on row 172
        High quality

KKT.PB: max.abs.err = 1.78e-15 on row 137
        max.rel.err = 1.37e-16 on row 137
        High quality

End of output
